CMD:
./solvers/bin/cadical --plain --no-reduce -t 1600 ./data/cnfs//shift_register_top_w16_d8_e0/shift_register_top_w16_d8_e0.43.cnf

c --- [ banner ] -------------------------------------------------------------
c 
c CaDiCaL SAT Solver
c Copyright (c) 2016-2024
c A. Biere, M. Fleury, N. Froleyks, K. Fazekas, F. Pollitt, T. Faller
c JKU Linz, University of Freiburg, TU Wien
c 
c Version 2.1.3 5296d3d2a9bf48c154ab2acb5e44625776d821bf
c g++ (Gentoo 12.3.1_p20230526 p2) 12.3.1 20230526 -Wall -Wextra -O3 -DNDEBUG
c Sat Aug 9 07:26:21 PDT 2025 Linux cedar2.int.cedar.computecanada.ca 5.14.0-362.24.2.el9_3.x86_64 x86_64
c 
c --- [ limit ] --------------------------------------------------------------
c 
c setting time limit to 1600 seconds real time (due to '-t 1600')
c 
c --- [ parsing input ] ------------------------------------------------------
c 
c reading DIMACS file from './data/cnfs//shift_register_top_w16_d8_e0/shift_register_top_w16_d8_e0.43.cnf'
c opening file to read './data/cnfs//shift_register_top_w16_d8_e0/shift_register_top_w16_d8_e0.43.cnf'
c found 'p cnf 57664 167729' header
c parsed 167729 clauses in 0.02 seconds process time
c 
c --- [ options ] ------------------------------------------------------------
c 
c   --compact=false                (different from default 'true')
c   --decompose=false              (different from default 'true')
c   --deduplicate=false            (different from default 'true')
c   --elim=false                   (different from default 'true')
c   --probe=false                  (different from default 'true')
c   --reduce=false                 (different from default 'true')
c   --subsume=false                (different from default 'true')
c   --ternary=false                (different from default 'true')
c   --transred=false               (different from default 'true')
c   --vivify=false                 (different from default 'true')
c 
c --- [ solving ] ------------------------------------------------------------
c 
c time measured in process time since initialization
c 
c  seconds  reductions  redundant  irredundant
c         MB    restarts       trail       variables
c          level   conflicts       glue         remaining
c 
c *  0.02 30  0 0   0    0    0  0% 0 164627 54538 95%
c {  0.04 31  0 0   0    0    0  0% 0 164627 54538 95%
c i  0.05 31 1457 0   0    9    8 95% 1 164627 54409 94%
c i  0.06 31 1005 0   9   88   72 74% 2 164627 54280 94%
c i  0.07 31 713 0  12  121   99 58% 2 164627 54237 94%
c i  0.10 31 343 0  54  333  302 41% 3 164627 54233 94%
c i  0.10 31 330 0  56  346  314 40% 3 164627 54050 94%
c i  0.16 31 156 0 114  980  886 40% 9 164627 54045 94%
c }  0.16 31 153 0 114 1002  906 40% 9 164627 54044 94%
c [  0.16 31  0 0 114 1002  906  0% 0 164627 54044 94%
c O  0.16 31 401 0 114 1003  907 95% 2 164627 54044 94%
c i  0.22 31 399 0 114 1274 1152 71% 4 164627 54043 94%
c i  0.28 31 368 0 114 1505 1334 69% 5 164627 54042 94%
c i  0.29 31 358 0 114 1554 1366 68% 5 164627 54041 94%
c i  0.31 32 343 0 114 1658 1457 67% 6 164627 54040 94%
c i  0.32 32 340 0 114 1707 1486 65% 7 164627 54039 94%
c i  0.32 32 340 0 114 1715 1493 65% 7 164627 54038 94%
c i  0.38 32 348 0 115 2214 1862 61% 14 164627 54037 94%
c i  0.38 32 359 0 115 2251 1894 61% 15 164627 54036 94%
c ]  0.49 32 398 0 115 3002 2488 56% 21 164627 54036 94%
c 
c  seconds   reductions  redundant  irredundant
c         MB     restarts       trail       variables
c           level   conflicts       glue         remaining
c 
c {  0.49 32 153 0 115 3002 2488 40% 9 164627 54036 94%
c F  0.49 32 154 0 115 3006 2491 40% 9 164627 54036 94%
c i  0.53 32 128 0 115 3238 2633 43% 9 164627 53950 94%
c i  0.55 32 126 0 132 3392 2769 43% 10 164627 53937 94%
c i  0.55 32 126 0 133 3396 2770 43% 10 164627 53919 94%
c i  0.56 32 125 0 142 3423 2795 43% 10 164627 53913 93%
c i  0.58 32 117 0 154 3710 3066 45% 10 164627 53895 93%
c i  0.63 32 118 0 170 5305 4548 50% 8 164627 53887 93%
c #  0.65 33 125 0 170 6007 5182 51% 7 164627 53886 93%
c }  0.68 33 108 0 171 7002 6058 47% 7 164627 53886 93%
c [  0.68 33 398 0 171 7002 6058 56% 21 164627 53886 93%
c i  0.76 33 292 0 172 7839 6788 50% 18 164627 53885 93%
c i  0.87 33 233 0 172 8785 7695 51% 17 164627 53884 93%
c I  0.99 33 243 0 173 10008 8791 54% 15 164627 53884 93%
c i  1.14 34 198 0 175 11496 10179 51% 14 164627 53863 93%
c ]  1.20 34 194 0 175 12528 11136 52% 13 164627 53863 93%
c 1  1.20 34 194 0 175 12528 11136 52% 13 164627 53863 93%
c 
c --- [ result ] -------------------------------------------------------------
c 
s SATISFIABLE
v -1 -2 -3 -4 -5 -6 -7 -8 -9 -10 -11 -12 -13 -14 -15 -16 -17 -18 -19 -20 -21
v -22 -23 -24 -25 -26 -27 -28 -29 -30 -31 -32 -33 -34 -35 36 -37 -38 -39 -40
v -41 -42 -43 -44 -45 -46 -47 -48 -49 -50 -51 -52 -53 -54 -55 -56 -57 -58 -59
v -60 -61 -62 -63 -64 -65 -66 -67 -68 -69 -70 -71 -72 -73 -74 -75 -76 -77 -78
v -79 -80 -81 -82 -83 -84 -85 -86 -87 -88 -89 -90 -91 -92 -93 -94 -95 -96 -97
v -98 -99 -100 -101 -102 -103 -104 -105 -106 -107 -108 -109 -110 -111 -112
v -113 -114 -115 -116 -117 -118 -119 -120 -121 -122 -123 -124 -125 -126 -127
v -128 -129 -130 -131 -132 -133 -134 -135 -136 -137 -138 -139 -140 -141 -142
... skipped 5022 lines ...
v -57093 -57094 -57095 57096 -57097 -57098 57099 -57100 -57101 -57102 -57103
v 57104 -57105 -57106 57107 -57108 -57109 -57110 -57111 -57112 -57113 57114
v 57115 -57116 -57117 -57118 -57119 57120 -57121 -57122 -57123 -57124 -57125
v 57126 -57127 -57128 -57129 57130 -57131 57132 -57133 57134 57135 -57136
v -57137 57138 57139 -57140 57141 57142 -57143 -57144 -57145 -57146 -57147
v -57148 -57149 57150 -57151 -57152 -57153 -57154 57155 -57156 -57157 57158
v -57159 -57160 -57161 -57162 -57163 -57164 -57165 -57166 57167 -57168 57169
v -57170 -57171 57172 -57173 -57174 -57175 -57176 57177 -57178 -57179 57180
v -57181 -57182 -57183 -57184 57185 -57186 -57187 57188 -57189 -57190 -57191
v -57192 57193 -57194 -57195 57196 -57197 -57198 -57199 -57200 57201 -57202
v -57203 57204 -57205 -57206 -57207 -57208 57209 -57210 -57211 57212 -57213
v -57214 -57215 -57216 57217 -57218 -57219 57220 -57221 -57222 -57223 -57224
v 57225 -57226 -57227 57228 -57229 -57230 -57231 -57232 57233 -57234 -57235
v 57236 -57237 -57238 -57239 -57240 57241 -57242 -57243 57244 -57245 -57246
v -57247 -57248 57249 -57250 -57251 57252 -57253 -57254 -57255 -57256 57257
v -57258 -57259 57260 -57261 -57262 -57263 -57264 57265 -57266 -57267 57268
v -57269 -57270 -57271 -57272 57273 -57274 -57275 57276 -57277 -57278 -57279
v -57280 57281 -57282 -57283 57284 -57285 -57286 -57287 -57288 57289 -57290
v -57291 57292 -57293 -57294 -57295 -57296 -57297 -57298 -57299 -57300 57301
v -57302 -57303 57304 -57305 -57306 -57307 -57308 57309 -57310 -57311 57312
v -57313 -57314 -57315 -57316 57317 -57318 -57319 57320 -57321 -57322 -57323
v -57324 57325 -57326 -57327 57328 -57329 -57330 -57331 -57332 57333 -57334
v -57335 57336 -57337 -57338 -57339 -57340 57341 -57342 -57343 57344 -57345
v -57346 -57347 -57348 57349 -57350 -57351 57352 -57353 -57354 -57355 -57356
v 57357 -57358 -57359 57360 -57361 -57362 -57363 -57364 57365 -57366 -57367
v 57368 -57369 -57370 -57371 -57372 57373 -57374 -57375 57376 -57377 -57378
v -57379 -57380 57381 -57382 -57383 57384 -57385 -57386 -57387 -57388 57389
v -57390 -57391 57392 -57393 -57394 -57395 -57396 57397 -57398 -57399 57400
v -57401 -57402 -57403 -57404 57405 -57406 -57407 57408 -57409 -57410 -57411
v -57412 57413 -57414 -57415 57416 -57417 -57418 -57419 -57420 57421 -57422
v -57423 -57424 -57425 -57426 -57427 57428 57429 -57430 -57431 -57432 57433
v -57434 57435 -57436 -57437 57438 -57439 57440 -57441 -57442 -57443 -57444
v 57445 -57446 -57447 -57448 -57449 -57450 -57451 57452 -57453 -57454 -57455
v -57456 -57457 -57458 57459 -57460 -57461 -57462 57463 -57464 57465 -57466
v -57467 -57468 57469 -57470 57471 -57472 -57473 -57474 -57475 57476 -57477
v 57478 -57479 -57480 57481 -57482 57483 57484 -57485 57486 -57487 -57488
v 57489 -57490 57491 57492 -57493 57494 -57495 -57496 57497 -57498 57499 57500
v -57501 57502 -57503 -57504 57505 -57506 57507 57508 -57509 57510 -57511
v -57512 57513 -57514 57515 -57516 57517 -57518 -57519 57520 -57521 -57522
v -57523 57524 -57525 57526 -57527 -57528 57529 -57530 57531 57532 -57533
v 57534 -57535 -57536 57537 -57538 57539 57540 -57541 57542 -57543 -57544
v 57545 -57546 57547 57548 -57549 57550 -57551 -57552 57553 -57554 57555 57556
v -57557 57558 -57559 -57560 57561 -57562 57563 -57564 57565 -57566 -57567
v 57568 -57569 -57570 -57571 57572 -57573 57574 -57575 -57576 57577 -57578
v 57579 57580 -57581 57582 -57583 -57584 57585 -57586 57587 57588 -57589 57590
v -57591 -57592 57593 -57594 57595 57596 -57597 -57598 57599 -57600 -57601
v -57602 -57603 57604 -57605 -57606 -57607 57608 -57609 -57610 -57611 57612
v -57613 -57614 -57615 57616 -57617 -57618 -57619 57620 -57621 -57622 -57623
v 57624 -57625 -57626 -57627 57628 -57629 -57630 -57631 57632 -57633 -57634
v -57635 57636 -57637 -57638 -57639 57640 -57641 -57642 -57643 57644 -57645
v -57646 -57647 57648 -57649 -57650 -57651 57652 -57653 -57654 -57655 57656
v -57657 -57658 -57659 57660 -57661 -57662 57663 -57664 0
c 
c --- [ run-time profiling ] -------------------------------------------------
c 
c process time taken by individual solving procedures
c (percentage relative to process time for solving)
c 
c         1.17   99.99% search
c         0.85   72.56% stable
c         0.30   25.78% unstable
c         0.02    2.02% parse
c         0.02    1.65% lucky
c         0.00    0.00% simplify
c   =================================
c         1.17   97.77% solve
c 
c last line shows process time for solving
c (percentage relative to total process time)
c 
c --- [ statistics ] ---------------------------------------------------------
c 
c chronological:              4870        38.87 %  of conflicts
c conflicts:                 12528     10672.93    per second
c decisions:                 69501     59209.70    per second
c fixed:                      3800         6.59 %  of all variables
c learned:                   12060        96.26 %  per conflict
c learned_lits:             571400       100.00 %  learned literals
c minimized:                     0         0.00 %  learned literals
c shrunken:                 165836        29.02 %  learned literals
c minishrunken:              88680        15.52 %  learned literals
c otfs:                         74         0.59 %  of conflict
c propagations:           23929780        20.39 M  per second
c rephased:                      4      3132.00    interval
c restarts:                    175        71.59    interval
c stabilizing:                   2        60.06 %  of conflicts
c subsumed:                    899         0.51 %  of all clauses
c strengthened:                 71         0.04 %  of all clauses
c 
c seconds are measured in process time for solving
c 
c --- [ resources ] ----------------------------------------------------------
c 
c total process time since initialization:         1.20    seconds
c total real time since initialization:            1.21    seconds
c maximum resident set size of process:           32.89    MB
c 
c --- [ shutting down ] ------------------------------------------------------
c 
c exit 10
